20
5
413442
0
0
58 40 42 54 34
1
0
65 43 42 52 38
2
0
58 41 39 52 38
3
0
60 40 42 48 34
4
0
61 41 42 50 36
5
0
60 41 43 51 38
6
0
59 42 39 52 36
7
0
61 44 38 51 34
8
0
56 41 39 48 35
9
0
58 46 41 49 39
10
0
62 43 42 50 39
11
0
59 41 38 47 38
12
0
59 39 45 50 34
13
0
56 39 41 48 37
14
0
62 47 40 46 38
15
0
59 43 40 49 36
16
0
55 40 43 46 39
17
0
66 40 42 50 39
18
0
60 40 42 47 31
19
0
59 42 38 53 38
